c SOURCE: Dmitriy Shustrov (shustrov38@gmail.com)
c DESCRIPTION: Planar graph based on Voronoi Diagram with random edges removed.
c 
c STATS: Average vertex degree = 4.12
c STATS: Edge density = 0.0416
c STATS: Face vertex count distribution:
c           3 verts:      71 faces
c           4 verts:      25 faces
c           5 verts:       4 faces
c           6 verts:       2 faces
c           7 verts:       2 faces
c           8 verts:       1 face
c           9 verts:       1 face
c          13 verts:       1 face
c          23 verts:       1 face
c STATS: Connected components = 1
c 
p edge 100 206
e 99 49
e 99 46
e 99 79
e 99 8
e 46 5
e 46 14
e 46 80
e 46 17
e 12 88
e 12 8
e 12 79
e 12 18
e 8 55
e 8 49
e 8 88
e 80 62
e 80 15
e 15 5
e 15 14
e 79 18
e 17 5
e 17 6
e 49 21
e 14 5
e 11 37
e 11 93
e 11 18
e 21 6
e 5 6
e 5 57
e 5 7
e 5 24
e 18 93
e 18 88
e 24 7
e 24 25
e 55 42
e 55 88
e 55 81
e 88 81
e 88 66
e 78 6
e 78 42
e 42 87
e 42 6
e 42 81
e 81 87
e 6 57
e 6 69
e 66 10
e 66 32
e 66 87
e 66 93
e 87 69
e 87 32
e 25 7
e 25 92
e 57 7
e 7 38
e 7 92
e 69 44
e 69 54
e 92 38
e 92 26
e 92 96
e 32 65
e 32 54
e 32 10
e 96 94
e 96 26
e 93 37
e 93 10
e 26 94
e 26 38
e 26 76
e 29 16
e 29 53
e 29 44
e 54 72
e 54 65
e 54 98
e 10 65
e 38 53
e 38 77
e 94 62
e 37 22
e 65 89
e 65 47
e 65 98
e 65 40
e 98 72
e 72 59
e 72 3
e 72 44
e 72 47
e 53 16
e 44 58
e 44 16
e 44 3
e 16 58
e 47 52
e 47 89
e 77 61
e 77 76
e 58 36
e 58 82
e 82 36
e 82 61
e 76 61
e 40 4
e 40 89
e 40 22
e 40 84
e 27 61
e 27 100
e 27 33
e 27 13
e 89 50
e 89 4
e 90 34
e 90 13
e 3 1
e 3 36
e 36 67
e 36 91
e 36 1
e 22 68
e 22 20
e 22 85
e 59 1
e 59 52
e 52 35
e 52 1
e 52 50
e 61 100
e 61 91
e 84 4
e 34 2
e 33 83
e 4 45
e 4 50
e 4 85
e 4 39
e 50 45
e 50 35
e 1 73
e 1 67
e 1 35
e 100 91
e 39 20
e 91 56
e 56 71
e 56 67
e 71 2
e 71 43
e 35 73
e 35 63
e 2 30
e 67 23
e 67 73
e 67 19
e 45 86
e 45 31
e 45 63
e 63 64
e 63 9
e 31 97
e 31 75
e 31 64
e 31 86
e 73 9
e 73 19
e 19 60
e 19 23
e 19 9
e 86 68
e 86 28
e 86 97
e 86 20
e 9 60
e 9 64
e 23 41
e 23 70
e 23 43
e 23 60
e 43 74
e 43 51
e 43 30
e 75 60
e 75 64
e 75 97
e 75 28
e 75 68
e 64 60
e 97 28
e 28 68
e 30 48
e 68 41
e 68 60
e 74 70
e 74 51
e 48 95
e 51 95
e 51 70
e 70 95
e 95 41
